Traveling Salesman Problem/TSP_generados/Aleatorio1621104387_19.tsp
NAME: Aleatorio1621104387_19.tsp
COMMENT: Randomly generated scenario
TYPE: TSP
DIMENSION: 19
EDGE_WEIGHT_TYPE: ATT
NODE_COORD_SECTION
1 11.43 2.61
2 33.96 25.06
3 10.54 9.22
4 27.95 11.62
5 34.36 14.89
6 27.9 8.66
7 1.46 24.53
8 24.06 1.08
9 35.25 31.21
10 46.18 41.24
11 20.04 35.53
12 32.43 28.56
13 40.63 9.87
14 32.8 3.32
15 1.77 33.78
16 47.39 22.52
17 24.92 46.98
18 49.12 47.19
19 41.85 36.45
