Traveling Salesman Problem/TSP_generados/Aleatorio1621104387_19.opt.tour
NAME: Aleatorio1621104387_19.opt.tour
COMMENT: Optimal solution for Aleatorio1621104387_19 (193.12812221681207)
TYPE: TOUR
DIMENSION: 19
TOUR_SECTION
1 3 7 15 11 17 18 10 19 9 12 2 16 13 5 4 6 14 8
-1
EOF
